(set-info :source |printed by MathSAT|)
(declare-fun |!{$(in_main#0)<N>}| () Int)
(declare-fun |!{$(in_main#0)<N>}.next| () Int)
(declare-fun |!{$(in_main#0)<&array>}| () Int)
(declare-fun |!{$(in_main#0)<&array>}.next| () Int)
(declare-fun |!{$(in_main#0)<k>}| () Int)
(declare-fun |!{$(in_main#0)<k>}.next| () Int)
(declare-fun |!{%memaddr}| () Int)
(declare-fun |!{%memaddr}.next| () Int)
(declare-fun |!{%mem.0}| () (Array Int Int))
(declare-fun |!{%mem.0}.next| () (Array Int Int))
(declare-fun |!{$(in_main#0)<$(in___VERIFIER_nondet_int#1)<h#<__VERIFIER_nondet_int.return>>>}| () Int)
(declare-fun |!{$(in_main#0)<$(in___VERIFIER_nondet_int#3)<h#<__VERIFIER_nondet_int.return>>>}| () Int)
(declare-fun |!{$(in_main#0)<$(in___VERIFIER_nondet_int#4)<h#<__VERIFIER_nondet_int.return>>>}| () Int)
(declare-fun |!{$(in_main#0)<$(in_rec_array_find#5)<$temp.1>>}| () Int)
(declare-fun |!{$(in_main#0)<$(in_rec_array_find#5)<$tmp>>}| () Int)
(declare-fun |!{$(in_main#0)<$(in_rec_array_find#5)<$(in_rec_array_find#0)<$temp.1>>>}| () Int)
(declare-fun |!{$(in_main#0)<$(in_rec_array_find#5)<$(in_rec_array_find#0)<$tmp>>>}| () Int)
(declare-fun !pc () Int)
(declare-fun !pc.next () Int)
(declare-fun |%{$(in_main#0)<$(in_rec_array_find#5)<rec_array_find.return>>}#3| () Int)
(declare-fun |%{$(in_main#0)<$(in_rec_array_find#5)<$(in_rec_array_find#0)<rec_array_find.return>>>}#3| () Int)
(declare-fun rec_array_find<0> (Int Int Int Int Int) Int)
(declare-fun |%{$(in_main#0)<$(in_rec_array_find#5)<$(in_rec_array_find#0)<$temp.1>>>}#3| () Int)
(declare-fun |%{$(in_main#0)<$(in_rec_array_find#5)<$(in_rec_array_find#0)<$tmp>>>}#3| () Int)
(declare-fun |%{$(in_main#0)<$(in_rec_array_find#5)<$temp.1>>}#3| () Int)
(declare-fun |%{$(in_main#0)<$(in_rec_array_find#5)<$tmp>>}#3| () Int)
(define-fun .def_61 () Int (! !pc :next !pc.next))
(define-fun .def_64 () Bool (! (= .def_61 2) :init true))
(define-fun .def_286 () Bool (= .def_61 50))
(define-fun .def_103 () Bool (= !pc.next 0))
(define-fun .def_293 () Bool (and .def_103 .def_286))
(define-fun .def_10 () Int (! |!{$(in_main#0)<&array>}| :next |!{$(in_main#0)<&array>}.next|))
(define-fun .def_250 () Int (+ .def_10 |%{$(in_main#0)<$(in_rec_array_find#5)<rec_array_find.return>>}#3|))
(define-fun .def_16 () (Array Int Int) (! |!{%mem.0}| :next |!{%mem.0}.next|))
(define-fun .def_251 () Int (select .def_16 .def_250))
(define-fun .def_252 () Bool (= |!{$(in_main#0)<$(in___VERIFIER_nondet_int#4)<h#<__VERIFIER_nondet_int.return>>>}| .def_251))
(define-fun .def_253 () Int (ite .def_252 1 0))
(define-fun .def_254 () Bool (= .def_253 0))
(define-fun .def_255 () Bool (not .def_254))
(define-fun .def_245 () Bool (= |%{$(in_main#0)<$(in_rec_array_find#5)<rec_array_find.return>>}#3| (- 1)))
(define-fun .def_249 () Bool (not .def_245))
(define-fun .def_259 () Bool (and .def_249 .def_255))
(define-fun .def_264 () Bool (or .def_245 .def_259))
(define-fun .def_14 () Int (! |!{%memaddr}| :next |!{%memaddr}.next|))
(define-fun .def_98 () Bool (= .def_14 |!{%memaddr}.next|))
(define-fun .def_12 () Int (! |!{$(in_main#0)<k>}| :next |!{$(in_main#0)<k>}.next|))
(define-fun .def_96 () Bool (= .def_12 |!{$(in_main#0)<k>}.next|))
(define-fun .def_94 () Bool (= .def_10 |!{$(in_main#0)<&array>}.next|))
(define-fun .def_8 () Int (! |!{$(in_main#0)<N>}| :next |!{$(in_main#0)<N>}.next|))
(define-fun .def_93 () Bool (= .def_8 |!{$(in_main#0)<N>}.next|))
(define-fun .def_95 () Bool (and .def_93 .def_94))
(define-fun .def_97 () Bool (and .def_95 .def_96))
(define-fun .def_99 () Bool (and .def_97 .def_98))
(define-fun .def_86 () Bool (= .def_16 |!{%mem.0}.next|))
(define-fun .def_100 () Bool (and .def_86 .def_99))
(define-fun .def_283 () Bool (and .def_100 .def_264))
(define-fun .def_112 () Bool (<= 0 .def_8))
(define-fun .def_110 () Bool (<= .def_8 0))
(define-fun .def_111 () Bool (not .def_110))
(define-fun .def_113 () Bool (and .def_111 .def_112))
(define-fun .def_241 () Bool (not .def_113))
(define-fun .def_226 () Bool (= |!{$(in_main#0)<$(in_rec_array_find#5)<$temp.1>>}| |%{$(in_main#0)<$(in_rec_array_find#5)<$temp.1>>}#3|))
(define-fun .def_243 () Bool (and .def_226 .def_241))
(define-fun .def_232 () Bool (= |!{$(in_main#0)<$(in_rec_array_find#5)<$tmp>>}| |%{$(in_main#0)<$(in_rec_array_find#5)<$tmp>>}#3|))
(define-fun .def_244 () Bool (and .def_232 .def_243))
(define-fun .def_246 () Bool (and .def_244 .def_245))
(define-fun .def_236 () Bool (= |%{$(in_main#0)<$(in_rec_array_find#5)<rec_array_find.return>>}#3| |%{$(in_main#0)<$(in_rec_array_find#5)<$(in_rec_array_find#0)<rec_array_find.return>>>}#3|))
(define-fun .def_233 () Bool (= |%{$(in_main#0)<$(in_rec_array_find#5)<$(in_rec_array_find#0)<rec_array_find.return>>>}#3| |%{$(in_main#0)<$(in_rec_array_find#5)<$tmp>>}#3|))
(define-fun .def_227 () Bool (= |%{$(in_main#0)<$(in_rec_array_find#5)<$(in_rec_array_find#0)<rec_array_find.return>>>}#3| |%{$(in_main#0)<$(in_rec_array_find#5)<$temp.1>>}#3|))
(define-fun .def_217 () Bool (= |%{$(in_main#0)<$(in_rec_array_find#5)<$(in_rec_array_find#0)<rec_array_find.return>>>}#3| (- 1)))
(define-fun .def_143 () Bool (<= 2 .def_8))
(define-fun .def_141 () Bool (<= .def_8 1))
(define-fun .def_142 () Bool (not .def_141))
(define-fun .def_144 () Bool (and .def_142 .def_143))
(define-fun .def_210 () Bool (not .def_144))
(define-fun .def_192 () Bool (= |!{$(in_main#0)<$(in_rec_array_find#5)<$(in_rec_array_find#0)<$temp.1>>>}| |%{$(in_main#0)<$(in_rec_array_find#5)<$(in_rec_array_find#0)<$temp.1>>>}#3|))
(define-fun .def_215 () Bool (and .def_192 .def_210))
(define-fun .def_198 () Bool (= |!{$(in_main#0)<$(in_rec_array_find#5)<$(in_rec_array_find#0)<$tmp>>>}| |%{$(in_main#0)<$(in_rec_array_find#5)<$(in_rec_array_find#0)<$tmp>>>}#3|))
(define-fun .def_216 () Bool (and .def_198 .def_215))
(define-fun .def_218 () Bool (and .def_216 .def_217))
(define-fun .def_182 () Int (+ .def_8 (- 2)))
(define-fun .def_183 () Int (rec_array_find<0> .def_10 |!{$(in_main#0)<$(in___VERIFIER_nondet_int#4)<h#<__VERIFIER_nondet_int.return>>>}| 2 .def_182 .def_8))
(define-fun .def_202 () Bool (= |%{$(in_main#0)<$(in_rec_array_find#5)<$(in_rec_array_find#0)<rec_array_find.return>>>}#3| .def_183))
(define-fun .def_199 () Bool (= .def_183 |%{$(in_main#0)<$(in_rec_array_find#5)<$(in_rec_array_find#0)<$tmp>>>}#3|))
(define-fun .def_193 () Bool (= .def_183 |%{$(in_main#0)<$(in_rec_array_find#5)<$(in_rec_array_find#0)<$temp.1>>>}#3|))
(define-fun .def_120 () Int (+ .def_8 .def_10))
(define-fun .def_152 () Int (+ .def_120 (- 2)))
(define-fun .def_153 () Int (select .def_16 .def_152))
(define-fun .def_154 () Bool (= |!{$(in_main#0)<$(in___VERIFIER_nondet_int#4)<h#<__VERIFIER_nondet_int.return>>>}| .def_153))
(define-fun .def_181 () Bool (not .def_154))
(define-fun .def_145 () Int (+ .def_10 1))
(define-fun .def_146 () Int (select .def_16 .def_145))
(define-fun .def_147 () Bool (= |!{$(in_main#0)<$(in___VERIFIER_nondet_int#4)<h#<__VERIFIER_nondet_int.return>>>}| .def_146))
(define-fun .def_148 () Bool (not .def_147))
(define-fun .def_184 () Bool (and .def_148 .def_181))
(define-fun .def_195 () Bool (and .def_184 .def_193))
(define-fun .def_201 () Bool (and .def_195 .def_199))
(define-fun .def_203 () Bool (and .def_201 .def_202))
(define-fun .def_170 () Int (* (- 1) |%{$(in_main#0)<$(in_rec_array_find#5)<$(in_rec_array_find#0)<rec_array_find.return>>>}#3|))
(define-fun .def_171 () Int (+ .def_8 .def_170))
(define-fun .def_172 () Bool (= .def_171 2))
(define-fun .def_160 () Bool (and .def_148 .def_154))
(define-fun .def_174 () Bool (and .def_160 .def_172))
(define-fun .def_169 () Bool (= |%{$(in_main#0)<$(in_rec_array_find#5)<$(in_rec_array_find#0)<rec_array_find.return>>>}#3| 1))
(define-fun .def_173 () Bool (and .def_147 .def_169))
(define-fun .def_175 () Bool (or .def_173 .def_174))
(define-fun .def_194 () Bool (and .def_175 .def_192))
(define-fun .def_200 () Bool (and .def_194 .def_198))
(define-fun .def_204 () Bool (or .def_200 .def_203))
(define-fun .def_205 () Bool (and .def_144 .def_204))
(define-fun .def_219 () Bool (or .def_205 .def_218))
(define-fun .def_121 () Int (+ .def_120 (- 1)))
(define-fun .def_122 () Int (select .def_16 .def_121))
(define-fun .def_123 () Bool (= |!{$(in_main#0)<$(in___VERIFIER_nondet_int#4)<h#<__VERIFIER_nondet_int.return>>>}| .def_122))
(define-fun .def_140 () Bool (not .def_123))
(define-fun .def_220 () Bool (and .def_140 .def_219))
(define-fun .def_114 () Int (select .def_16 .def_10))
(define-fun .def_115 () Bool (= |!{$(in_main#0)<$(in___VERIFIER_nondet_int#4)<h#<__VERIFIER_nondet_int.return>>>}| .def_114))
(define-fun .def_116 () Bool (not .def_115))
(define-fun .def_221 () Bool (and .def_116 .def_220))
(define-fun .def_229 () Bool (and .def_221 .def_227))
(define-fun .def_235 () Bool (and .def_229 .def_233))
(define-fun .def_237 () Bool (and .def_235 .def_236))
(define-fun .def_132 () Int (* (- 1) |%{$(in_main#0)<$(in_rec_array_find#5)<rec_array_find.return>>}#3|))
(define-fun .def_133 () Int (+ .def_8 .def_132))
(define-fun .def_134 () Bool (= .def_133 1))
(define-fun .def_126 () Bool (and .def_116 .def_123))
(define-fun .def_136 () Bool (and .def_126 .def_134))
(define-fun .def_131 () Bool (= |%{$(in_main#0)<$(in_rec_array_find#5)<rec_array_find.return>>}#3| 0))
(define-fun .def_135 () Bool (and .def_115 .def_131))
(define-fun .def_137 () Bool (or .def_135 .def_136))
(define-fun .def_228 () Bool (and .def_137 .def_226))
(define-fun .def_234 () Bool (and .def_228 .def_232))
(define-fun .def_238 () Bool (or .def_234 .def_237))
(define-fun .def_239 () Bool (and .def_113 .def_238))
(define-fun .def_247 () Bool (or .def_239 .def_246))
(define-fun .def_284 () Bool (and .def_247 .def_283))
(define-fun .def_105 () Bool (<= .def_8 .def_12))
(define-fun .def_285 () Bool (and .def_105 .def_284))
(define-fun .def_294 () Bool (and .def_285 .def_293))
(define-fun .def_289 () Bool (= !pc.next 202))
(define-fun .def_290 () Bool (and .def_286 .def_289))
(define-fun .def_275 () Bool (and .def_93 .def_254))
(define-fun .def_276 () Bool (and .def_94 .def_275))
(define-fun .def_277 () Bool (and .def_96 .def_276))
(define-fun .def_278 () Bool (and .def_98 .def_277))
(define-fun .def_279 () Bool (and .def_86 .def_278))
(define-fun .def_280 () Bool (and .def_249 .def_279))
(define-fun .def_281 () Bool (and .def_247 .def_280))
(define-fun .def_282 () Bool (and .def_105 .def_281))
(define-fun .def_291 () Bool (and .def_282 .def_290))
(define-fun .def_90 () Bool (= !pc.next 50))
(define-fun .def_287 () Bool (and .def_90 .def_286))
(define-fun .def_107 () Int (+ .def_10 .def_12))
(define-fun .def_108 () (Array Int Int) (store .def_16 .def_107 |!{$(in_main#0)<$(in___VERIFIER_nondet_int#3)<h#<__VERIFIER_nondet_int.return>>>}|))
(define-fun .def_272 () Bool (= |!{%mem.0}.next| .def_108))
(define-fun .def_267 () Int (* (- 1) |!{$(in_main#0)<k>}.next|))
(define-fun .def_268 () Int (+ .def_12 .def_267))
(define-fun .def_269 () Bool (= .def_268 (- 1)))
(define-fun .def_270 () Bool (and .def_95 .def_269))
(define-fun .def_271 () Bool (and .def_98 .def_270))
(define-fun .def_273 () Bool (and .def_271 .def_272))
(define-fun .def_106 () Bool (not .def_105))
(define-fun .def_274 () Bool (and .def_106 .def_273))
(define-fun .def_288 () Bool (and .def_274 .def_287))
(define-fun .def_292 () Bool (or .def_288 .def_291))
(define-fun .def_295 () Bool (or .def_292 .def_294))
(define-fun .def_91 () Bool (and .def_64 .def_90))
(define-fun .def_84 () Bool (= |!{%memaddr}.next| 2))
(define-fun .def_82 () Bool (= |!{$(in_main#0)<k>}.next| 0))
(define-fun .def_80 () Bool (= |!{$(in_main#0)<&array>}.next| 1))
(define-fun .def_79 () Bool (= |!{$(in_main#0)<N>}.next| |!{$(in_main#0)<$(in___VERIFIER_nondet_int#1)<h#<__VERIFIER_nondet_int.return>>>}|))
(define-fun .def_81 () Bool (and .def_79 .def_80))
(define-fun .def_83 () Bool (and .def_81 .def_82))
(define-fun .def_85 () Bool (and .def_83 .def_84))
(define-fun .def_87 () Bool (and .def_85 .def_86))
(define-fun .def_74 () Bool (<= |!{$(in_main#0)<$(in___VERIFIER_nondet_int#1)<h#<__VERIFIER_nondet_int.return>>>}| 0))
(define-fun .def_75 () Bool (not .def_74))
(define-fun .def_76 () Int (ite .def_75 1 0))
(define-fun .def_77 () Bool (= .def_76 0))
(define-fun .def_78 () Bool (not .def_77))
(define-fun .def_88 () Bool (and .def_78 .def_87))
(define-fun .def_92 () Bool (and .def_88 .def_91))
(define-fun .def_296 () Bool (! (or .def_92 .def_295) :trans true))
(define-fun .def_102 () Bool (= .def_61 202))
(define-fun .def_297 () Bool (! (not .def_102) :invar-property 0 :invar-property-name ||))
(assert true)
